<?xml version = "1.0" standalone="yes"?>
<!-- This file has been generated by DOcplex version 2.23.222  -->
<CPLEXSolution version="1.0">
 <header
   problemName="CVRP"
   objectiveValue="8901.13"
  />
 <variables>
  <variable name="x_0_1" index="0" value="1.00000"/>
  <variable name="x_0_2" index="1" value="1.00000"/>
  <variable name="x_0_4" index="3" value="1.00000"/>
  <variable name="x_0_7" index="6" value="1.00000"/>
  <variable name="x_0_8" index="7" value="1.00000"/>
  <variable name="x_0_9" index="8" value="1.00000"/>
  <variable name="x_0_12" index="11" value="1.00000"/>
  <variable name="x_0_14" index="13" value="1.00000"/>
  <variable name="x_1_10" index="24" value="1.00000"/>
  <variable name="x_2_0" index="30" value="1.00000"/>
  <variable name="x_3_0" index="45" value="1.00000"/>
  <variable name="x_4_5" index="64" value="1.00000"/>
  <variable name="x_5_0" index="75" value="1.00000"/>
  <variable name="x_6_0" index="90" value="1.00000"/>
  <variable name="x_7_0" index="105" value="1.00000"/>
  <variable name="x_8_15" index="134" value="1.00000"/>
  <variable name="x_9_0" index="135" value="1.00000"/>
  <variable name="x_10_6" index="156" value="1.00000"/>
  <variable name="x_11_0" index="165" value="1.00000"/>
  <variable name="x_12_13" index="192" value="1.00000"/>
  <variable name="x_13_3" index="198" value="1.00000"/>
  <variable name="x_14_11" index="221" value="1.00000"/>
  <variable name="x_15_0" index="225" value="1.00000"/>
  <variable name="u_1" index="240" value="2.00000"/>
  <variable name="u_2" index="241" value="28.00000"/>
  <variable name="u_3" index="242" value="29.00000"/>
  <variable name="u_4" index="243" value="5.00000"/>
  <variable name="u_5" index="244" value="29.00000"/>
  <variable name="u_6" index="245" value="26.00000"/>
  <variable name="u_7" index="246" value="28.00000"/>
  <variable name="u_8" index="247" value="15.00000"/>
  <variable name="u_9" index="248" value="28.00000"/>
  <variable name="u_10" index="249" value="10.00000"/>
  <variable name="u_11" index="250" value="29.00000"/>
  <variable name="u_12" index="251" value="21.00000"/>
  <variable name="u_13" index="252" value="22.00000"/>
  <variable name="u_14" index="253" value="28.00000"/>
  <variable name="u_15" index="254" value="29.00000"/>
 </variables>
</CPLEXSolution>
